c User generated cnf file
p cnf 10 39
1 -1 1 0 
10 -10 6 0 
-8 2 1 0 
3 1 -7 0 
2 7 -6 0 
10 -6 9 0 
3 10 -9 0 
8 2 -5 0 
4 2 -6 0 
-7 5 1 0 
-5 4 5 0 
-8 8 1 0 
8 6 -3 0 
7 2 -7 0 
8 -2 6 0 
9 7 -6 0 
7 9 -7 0 
-9 2 4 0 
9 9 -10 0 
3 8 -9 0 
1 2 -5 0 
-1 8 3 0 
7 -10 5 0 
-8 2 2 0 
8 -2 9 0 
-10 7 9 0 
1 9 -2 0 
-1 8 9 0 
7 -10 9 0 
9 -4 5 0 
10 -3 1 0 
8 3 -4 0 
-3 3 1 0 
2 10 -6 0 
2 -1 1 0 
5 -3 9 0 
4 -1 10 0 
3 7 -10 0 
-2 6 10 0 
